p cnf 73 922
1 2 13 0 
-34 -3 -14 -24 -3 -14 -24 -1 -2 -13 0 
-35 -3 -14 -24 -3 -14 -24 -1 -2 -13 0 
-36 -3 -14 -24 -3 -14 -24 -1 -2 -13 0 
-37 -3 -14 -24 -3 -14 -24 -1 -2 -13 0 
-38 -3 -14 -24 -3 -14 -24 -1 -2 -13 0 
-39 -3 -14 -24 -3 -14 -24 -1 -2 -13 0 
-40 -3 -14 -24 -3 -14 -24 -1 -2 -13 0 
-41 -3 -14 -24 -3 -14 -24 -1 -2 -13 0 
-42 -3 -14 -24 -3 -14 -24 -1 -2 -13 0 
-43 -4 -15 -25 -4 -15 -25 -1 -2 -13 0 
-44 -4 -15 -25 -4 -15 -25 -1 -2 -13 0 
-45 -4 -15 -25 -4 -15 -25 -1 -2 -13 0 
-46 -4 -15 -25 -4 -15 -25 -1 -2 -13 0 
-47 -4 -15 -25 -4 -15 -25 -1 -2 -13 0 
-48 -4 -15 -25 -4 -15 -25 -1 -2 -13 0 
-49 -4 -15 -25 -4 -15 -25 -1 -2 -13 0 
-50 -4 -15 -25 -4 -15 -25 -1 -2 -13 0 
-51 -5 -16 -26 -5 -16 -26 -1 -2 -13 0 
-52 -5 -16 -26 -5 -16 -26 -1 -2 -13 0 
-53 -5 -16 -26 -5 -16 -26 -1 -2 -13 0 
-54 -5 -16 -26 -5 -16 -26 -1 -2 -13 0 
-55 -5 -16 -26 -5 -16 -26 -1 -2 -13 0 
-56 -5 -16 -26 -5 -16 -26 -1 -2 -13 0 
-57 -5 -16 -26 -5 -16 -26 -1 -2 -13 0 
-58 -6 -17 -27 -6 -17 -27 -1 -2 -13 0 
-59 -6 -17 -27 -6 -17 -27 -1 -2 -13 0 
-60 -6 -17 -27 -6 -17 -27 -1 -2 -13 0 
-61 -6 -17 -27 -6 -17 -27 -1 -2 -13 0 
-62 -6 -17 -27 -6 -17 -27 -1 -2 -13 0 
-63 -6 -17 -27 -6 -17 -27 -1 -2 -13 0 
-64 -7 -18 -28 -7 -18 -28 -1 -2 -13 0 
-65 -7 -18 -28 -7 -18 -28 -1 -2 -13 0 
-66 -7 -18 -28 -7 -18 -28 -1 -2 -13 0 
-67 -7 -18 -28 -7 -18 -28 -1 -2 -13 0 
-68 -7 -18 -28 -7 -18 -28 -1 -2 -13 0 
-69 -8 -19 -29 -8 -19 -29 -1 -2 -13 0 
-70 -8 -19 -29 -8 -19 -29 -1 -2 -13 0 
-71 -9 -20 -30 -9 -20 -30 -1 -2 -13 0 
-72 -10 -21 -31 -10 -21 -31 -1 -2 -13 0 
-73 -11 -22 -32 -11 -22 -32 -1 -2 -13 0 
1 3 14 0 
-43 -4 -15 -34 -4 -15 -34 -1 -3 -14 0 
-44 -4 -15 -34 -4 -15 -34 -1 -3 -14 0 
-45 -4 -15 -34 -4 -15 -34 -1 -3 -14 0 
-46 -4 -15 -34 -4 -15 -34 -1 -3 -14 0 
-47 -4 -15 -34 -4 -15 -34 -1 -3 -14 0 
-48 -4 -15 -34 -4 -15 -34 -1 -3 -14 0 
-49 -4 -15 -34 -4 -15 -34 -1 -3 -14 0 
-50 -4 -15 -34 -4 -15 -34 -1 -3 -14 0 
-51 -5 -16 -35 -5 -16 -35 -1 -3 -14 0 
-52 -5 -16 -35 -5 -16 -35 -1 -3 -14 0 
-53 -5 -16 -35 -5 -16 -35 -1 -3 -14 0 
-54 -5 -16 -35 -5 -16 -35 -1 -3 -14 0 
-55 -5 -16 -35 -5 -16 -35 -1 -3 -14 0 
-56 -5 -16 -35 -5 -16 -35 -1 -3 -14 0 
-57 -5 -16 -35 -5 -16 -35 -1 -3 -14 0 
-58 -6 -17 -36 -6 -17 -36 -1 -3 -14 0 
-59 -6 -17 -36 -6 -17 -36 -1 -3 -14 0 
-60 -6 -17 -36 -6 -17 -36 -1 -3 -14 0 
-61 -6 -17 -36 -6 -17 -36 -1 -3 -14 0 
-62 -6 -17 -36 -6 -17 -36 -1 -3 -14 0 
-63 -6 -17 -36 -6 -17 -36 -1 -3 -14 0 
-64 -7 -18 -37 -7 -18 -37 -1 -3 -14 0 
-65 -7 -18 -37 -7 -18 -37 -1 -3 -14 0 
-66 -7 -18 -37 -7 -18 -37 -1 -3 -14 0 
-67 -7 -18 -37 -7 -18 -37 -1 -3 -14 0 
-68 -7 -18 -37 -7 -18 -37 -1 -3 -14 0 
-69 -8 -19 -38 -8 -19 -38 -1 -3 -14 0 
-70 -8 -19 -38 -8 -19 -38 -1 -3 -14 0 
-71 -9 -20 -39 -9 -20 -39 -1 -3 -14 0 
-72 -10 -21 -40 -10 -21 -40 -1 -3 -14 0 
-73 -11 -22 -41 -11 -22 -41 -1 -3 -14 0 
1 4 15 0 
-51 -5 -16 -43 -5 -16 -43 -1 -4 -15 0 
-52 -5 -16 -43 -5 -16 -43 -1 -4 -15 0 
-53 -5 -16 -43 -5 -16 -43 -1 -4 -15 0 
-54 -5 -16 -43 -5 -16 -43 -1 -4 -15 0 
-55 -5 -16 -43 -5 -16 -43 -1 -4 -15 0 
-56 -5 -16 -43 -5 -16 -43 -1 -4 -15 0 
-57 -5 -16 -43 -5 -16 -43 -1 -4 -15 0 
-58 -6 -17 -44 -6 -17 -44 -1 -4 -15 0 
-59 -6 -17 -44 -6 -17 -44 -1 -4 -15 0 
-60 -6 -17 -44 -6 -17 -44 -1 -4 -15 0 
-61 -6 -17 -44 -6 -17 -44 -1 -4 -15 0 
-62 -6 -17 -44 -6 -17 -44 -1 -4 -15 0 
-63 -6 -17 -44 -6 -17 -44 -1 -4 -15 0 
-64 -7 -18 -45 -7 -18 -45 -1 -4 -15 0 
-65 -7 -18 -45 -7 -18 -45 -1 -4 -15 0 
-66 -7 -18 -45 -7 -18 -45 -1 -4 -15 0 
-67 -7 -18 -45 -7 -18 -45 -1 -4 -15 0 
-68 -7 -18 -45 -7 -18 -45 -1 -4 -15 0 
-69 -8 -19 -46 -8 -19 -46 -1 -4 -15 0 
-70 -8 -19 -46 -8 -19 -46 -1 -4 -15 0 
-71 -9 -20 -47 -9 -20 -47 -1 -4 -15 0 
-72 -10 -21 -48 -10 -21 -48 -1 -4 -15 0 
-73 -11 -22 -49 -11 -22 -49 -1 -4 -15 0 
1 5 16 0 
-58 -6 -17 -51 -6 -17 -51 -1 -5 -16 0 
-59 -6 -17 -51 -6 -17 -51 -1 -5 -16 0 
-60 -6 -17 -51 -6 -17 -51 -1 -5 -16 0 
-61 -6 -17 -51 -6 -17 -51 -1 -5 -16 0 
-62 -6 -17 -51 -6 -17 -51 -1 -5 -16 0 
-63 -6 -17 -51 -6 -17 -51 -1 -5 -16 0 
-64 -7 -18 -52 -7 -18 -52 -1 -5 -16 0 
-65 -7 -18 -52 -7 -18 -52 -1 -5 -16 0 
-66 -7 -18 -52 -7 -18 -52 -1 -5 -16 0 
-67 -7 -18 -52 -7 -18 -52 -1 -5 -16 0 
-68 -7 -18 -52 -7 -18 -52 -1 -5 -16 0 
-69 -8 -19 -53 -8 -19 -53 -1 -5 -16 0 
-70 -8 -19 -53 -8 -19 -53 -1 -5 -16 0 
-71 -9 -20 -54 -9 -20 -54 -1 -5 -16 0 
-72 -10 -21 -55 -10 -21 -55 -1 -5 -16 0 
-73 -11 -22 -56 -11 -22 -56 -1 -5 -16 0 
1 6 17 0 
-64 -7 -18 -58 -7 -18 -58 -1 -6 -17 0 
-65 -7 -18 -58 -7 -18 -58 -1 -6 -17 0 
-66 -7 -18 -58 -7 -18 -58 -1 -6 -17 0 
-67 -7 -18 -58 -7 -18 -58 -1 -6 -17 0 
-68 -7 -18 -58 -7 -18 -58 -1 -6 -17 0 
-69 -8 -19 -59 -8 -19 -59 -1 -6 -17 0 
-70 -8 -19 -59 -8 -19 -59 -1 -6 -17 0 
-71 -9 -20 -60 -9 -20 -60 -1 -6 -17 0 
-72 -10 -21 -61 -10 -21 -61 -1 -6 -17 0 
-73 -11 -22 -62 -11 -22 -62 -1 -6 -17 0 
1 7 18 0 
-69 -8 -19 -64 -8 -19 -64 -1 -7 -18 0 
-70 -8 -19 -64 -8 -19 -64 -1 -7 -18 0 
-71 -9 -20 -65 -9 -20 -65 -1 -7 -18 0 
-72 -10 -21 -66 -10 -21 -66 -1 -7 -18 0 
-73 -11 -22 -67 -11 -22 -67 -1 -7 -18 0 
1 8 19 0 
1 9 20 0 
1 10 21 0 
1 11 22 0 
1 12 23 0 
2 3 24 0 
-43 -4 -25 -34 -4 -25 -34 -2 -3 -24 0 
-44 -4 -25 -34 -4 -25 -34 -2 -3 -24 0 
-45 -4 -25 -34 -4 -25 -34 -2 -3 -24 0 
-46 -4 -25 -34 -4 -25 -34 -2 -3 -24 0 
-47 -4 -25 -34 -4 -25 -34 -2 -3 -24 0 
-48 -4 -25 -34 -4 -25 -34 -2 -3 -24 0 
-49 -4 -25 -34 -4 -25 -34 -2 -3 -24 0 
-50 -4 -25 -34 -4 -25 -34 -2 -3 -24 0 
-51 -5 -26 -35 -5 -26 -35 -2 -3 -24 0 
-52 -5 -26 -35 -5 -26 -35 -2 -3 -24 0 
-53 -5 -26 -35 -5 -26 -35 -2 -3 -24 0 
-54 -5 -26 -35 -5 -26 -35 -2 -3 -24 0 
-55 -5 -26 -35 -5 -26 -35 -2 -3 -24 0 
-56 -5 -26 -35 -5 -26 -35 -2 -3 -24 0 
-57 -5 -26 -35 -5 -26 -35 -2 -3 -24 0 
-58 -6 -27 -36 -6 -27 -36 -2 -3 -24 0 
-59 -6 -27 -36 -6 -27 -36 -2 -3 -24 0 
-60 -6 -27 -36 -6 -27 -36 -2 -3 -24 0 
-61 -6 -27 -36 -6 -27 -36 -2 -3 -24 0 
-62 -6 -27 -36 -6 -27 -36 -2 -3 -24 0 
-63 -6 -27 -36 -6 -27 -36 -2 -3 -24 0 
-64 -7 -28 -37 -7 -28 -37 -2 -3 -24 0 
-65 -7 -28 -37 -7 -28 -37 -2 -3 -24 0 
-66 -7 -28 -37 -7 -28 -37 -2 -3 -24 0 
-67 -7 -28 -37 -7 -28 -37 -2 -3 -24 0 
-68 -7 -28 -37 -7 -28 -37 -2 -3 -24 0 
-69 -8 -29 -38 -8 -29 -38 -2 -3 -24 0 
-70 -8 -29 -38 -8 -29 -38 -2 -3 -24 0 
-71 -9 -30 -39 -9 -30 -39 -2 -3 -24 0 
-72 -10 -31 -40 -10 -31 -40 -2 -3 -24 0 
-73 -11 -32 -41 -11 -32 -41 -2 -3 -24 0 
2 4 25 0 
-51 -5 -26 -43 -5 -26 -43 -2 -4 -25 0 
-52 -5 -26 -43 -5 -26 -43 -2 -4 -25 0 
-53 -5 -26 -43 -5 -26 -43 -2 -4 -25 0 
-54 -5 -26 -43 -5 -26 -43 -2 -4 -25 0 
-55 -5 -26 -43 -5 -26 -43 -2 -4 -25 0 
-56 -5 -26 -43 -5 -26 -43 -2 -4 -25 0 
-57 -5 -26 -43 -5 -26 -43 -2 -4 -25 0 
-58 -6 -27 -44 -6 -27 -44 -2 -4 -25 0 
-59 -6 -27 -44 -6 -27 -44 -2 -4 -25 0 
-60 -6 -27 -44 -6 -27 -44 -2 -4 -25 0 
-61 -6 -27 -44 -6 -27 -44 -2 -4 -25 0 
-62 -6 -27 -44 -6 -27 -44 -2 -4 -25 0 
-63 -6 -27 -44 -6 -27 -44 -2 -4 -25 0 
-64 -7 -28 -45 -7 -28 -45 -2 -4 -25 0 
-65 -7 -28 -45 -7 -28 -45 -2 -4 -25 0 
-66 -7 -28 -45 -7 -28 -45 -2 -4 -25 0 
-67 -7 -28 -45 -7 -28 -45 -2 -4 -25 0 
-68 -7 -28 -45 -7 -28 -45 -2 -4 -25 0 
-69 -8 -29 -46 -8 -29 -46 -2 -4 -25 0 
-70 -8 -29 -46 -8 -29 -46 -2 -4 -25 0 
-71 -9 -30 -47 -9 -30 -47 -2 -4 -25 0 
-72 -10 -31 -48 -10 -31 -48 -2 -4 -25 0 
-73 -11 -32 -49 -11 -32 -49 -2 -4 -25 0 
2 5 26 0 
-58 -6 -27 -51 -6 -27 -51 -2 -5 -26 0 
-59 -6 -27 -51 -6 -27 -51 -2 -5 -26 0 
-60 -6 -27 -51 -6 -27 -51 -2 -5 -26 0 
-61 -6 -27 -51 -6 -27 -51 -2 -5 -26 0 
-62 -6 -27 -51 -6 -27 -51 -2 -5 -26 0 
-63 -6 -27 -51 -6 -27 -51 -2 -5 -26 0 
-64 -7 -28 -52 -7 -28 -52 -2 -5 -26 0 
-65 -7 -28 -52 -7 -28 -52 -2 -5 -26 0 
-66 -7 -28 -52 -7 -28 -52 -2 -5 -26 0 
-67 -7 -28 -52 -7 -28 -52 -2 -5 -26 0 
-68 -7 -28 -52 -7 -28 -52 -2 -5 -26 0 
-69 -8 -29 -53 -8 -29 -53 -2 -5 -26 0 
-70 -8 -29 -53 -8 -29 -53 -2 -5 -26 0 
-71 -9 -30 -54 -9 -30 -54 -2 -5 -26 0 
-72 -10 -31 -55 -10 -31 -55 -2 -5 -26 0 
-73 -11 -32 -56 -11 -32 -56 -2 -5 -26 0 
2 6 27 0 
-64 -7 -28 -58 -7 -28 -58 -2 -6 -27 0 
-65 -7 -28 -58 -7 -28 -58 -2 -6 -27 0 
-66 -7 -28 -58 -7 -28 -58 -2 -6 -27 0 
-67 -7 -28 -58 -7 -28 -58 -2 -6 -27 0 
-68 -7 -28 -58 -7 -28 -58 -2 -6 -27 0 
-69 -8 -29 -59 -8 -29 -59 -2 -6 -27 0 
-70 -8 -29 -59 -8 -29 -59 -2 -6 -27 0 
-71 -9 -30 -60 -9 -30 -60 -2 -6 -27 0 
-72 -10 -31 -61 -10 -31 -61 -2 -6 -27 0 
-73 -11 -32 -62 -11 -32 -62 -2 -6 -27 0 
2 7 28 0 
-69 -8 -29 -64 -8 -29 -64 -2 -7 -28 0 
-70 -8 -29 -64 -8 -29 -64 -2 -7 -28 0 
-71 -9 -30 -65 -9 -30 -65 -2 -7 -28 0 
-72 -10 -31 -66 -10 -31 -66 -2 -7 -28 0 
-73 -11 -32 -67 -11 -32 -67 -2 -7 -28 0 
2 8 29 0 
2 9 30 0 
2 10 31 0 
2 11 32 0 
2 12 33 0 
3 4 34 0 
-51 -5 -35 -43 -5 -35 -43 -3 -4 -34 0 
-52 -5 -35 -43 -5 -35 -43 -3 -4 -34 0 
-53 -5 -35 -43 -5 -35 -43 -3 -4 -34 0 
-54 -5 -35 -43 -5 -35 -43 -3 -4 -34 0 
-55 -5 -35 -43 -5 -35 -43 -3 -4 -34 0 
-56 -5 -35 -43 -5 -35 -43 -3 -4 -34 0 
-57 -5 -35 -43 -5 -35 -43 -3 -4 -34 0 
-58 -6 -36 -44 -6 -36 -44 -3 -4 -34 0 
-59 -6 -36 -44 -6 -36 -44 -3 -4 -34 0 
-60 -6 -36 -44 -6 -36 -44 -3 -4 -34 0 
-61 -6 -36 -44 -6 -36 -44 -3 -4 -34 0 
-62 -6 -36 -44 -6 -36 -44 -3 -4 -34 0 
-63 -6 -36 -44 -6 -36 -44 -3 -4 -34 0 
-64 -7 -37 -45 -7 -37 -45 -3 -4 -34 0 
-65 -7 -37 -45 -7 -37 -45 -3 -4 -34 0 
-66 -7 -37 -45 -7 -37 -45 -3 -4 -34 0 
-67 -7 -37 -45 -7 -37 -45 -3 -4 -34 0 
-68 -7 -37 -45 -7 -37 -45 -3 -4 -34 0 
-69 -8 -38 -46 -8 -38 -46 -3 -4 -34 0 
-70 -8 -38 -46 -8 -38 -46 -3 -4 -34 0 
-71 -9 -39 -47 -9 -39 -47 -3 -4 -34 0 
-72 -10 -40 -48 -10 -40 -48 -3 -4 -34 0 
-73 -11 -41 -49 -11 -41 -49 -3 -4 -34 0 
3 5 35 0 
-58 -6 -36 -51 -6 -36 -51 -3 -5 -35 0 
-59 -6 -36 -51 -6 -36 -51 -3 -5 -35 0 
-60 -6 -36 -51 -6 -36 -51 -3 -5 -35 0 
-61 -6 -36 -51 -6 -36 -51 -3 -5 -35 0 
-62 -6 -36 -51 -6 -36 -51 -3 -5 -35 0 
-63 -6 -36 -51 -6 -36 -51 -3 -5 -35 0 
-64 -7 -37 -52 -7 -37 -52 -3 -5 -35 0 
-65 -7 -37 -52 -7 -37 -52 -3 -5 -35 0 
-66 -7 -37 -52 -7 -37 -52 -3 -5 -35 0 
-67 -7 -37 -52 -7 -37 -52 -3 -5 -35 0 
-68 -7 -37 -52 -7 -37 -52 -3 -5 -35 0 
-69 -8 -38 -53 -8 -38 -53 -3 -5 -35 0 
-70 -8 -38 -53 -8 -38 -53 -3 -5 -35 0 
-71 -9 -39 -54 -9 -39 -54 -3 -5 -35 0 
-72 -10 -40 -55 -10 -40 -55 -3 -5 -35 0 
-73 -11 -41 -56 -11 -41 -56 -3 -5 -35 0 
3 6 36 0 
-64 -7 -37 -58 -7 -37 -58 -3 -6 -36 0 
-65 -7 -37 -58 -7 -37 -58 -3 -6 -36 0 
-66 -7 -37 -58 -7 -37 -58 -3 -6 -36 0 
-67 -7 -37 -58 -7 -37 -58 -3 -6 -36 0 
-68 -7 -37 -58 -7 -37 -58 -3 -6 -36 0 
-69 -8 -38 -59 -8 -38 -59 -3 -6 -36 0 
-70 -8 -38 -59 -8 -38 -59 -3 -6 -36 0 
-71 -9 -39 -60 -9 -39 -60 -3 -6 -36 0 
-72 -10 -40 -61 -10 -40 -61 -3 -6 -36 0 
-73 -11 -41 -62 -11 -41 -62 -3 -6 -36 0 
3 7 37 0 
-69 -8 -38 -64 -8 -38 -64 -3 -7 -37 0 
-70 -8 -38 -64 -8 -38 -64 -3 -7 -37 0 
-71 -9 -39 -65 -9 -39 -65 -3 -7 -37 0 
-72 -10 -40 -66 -10 -40 -66 -3 -7 -37 0 
-73 -11 -41 -67 -11 -41 -67 -3 -7 -37 0 
3 8 38 0 
3 9 39 0 
3 10 40 0 
3 11 41 0 
3 12 42 0 
4 5 43 0 
-58 -6 -44 -51 -6 -44 -51 -4 -5 -43 0 
-59 -6 -44 -51 -6 -44 -51 -4 -5 -43 0 
-60 -6 -44 -51 -6 -44 -51 -4 -5 -43 0 
-61 -6 -44 -51 -6 -44 -51 -4 -5 -43 0 
-62 -6 -44 -51 -6 -44 -51 -4 -5 -43 0 
-63 -6 -44 -51 -6 -44 -51 -4 -5 -43 0 
-64 -7 -45 -52 -7 -45 -52 -4 -5 -43 0 
-65 -7 -45 -52 -7 -45 -52 -4 -5 -43 0 
-66 -7 -45 -52 -7 -45 -52 -4 -5 -43 0 
-67 -7 -45 -52 -7 -45 -52 -4 -5 -43 0 
-68 -7 -45 -52 -7 -45 -52 -4 -5 -43 0 
-69 -8 -46 -53 -8 -46 -53 -4 -5 -43 0 
-70 -8 -46 -53 -8 -46 -53 -4 -5 -43 0 
-71 -9 -47 -54 -9 -47 -54 -4 -5 -43 0 
-72 -10 -48 -55 -10 -48 -55 -4 -5 -43 0 
-73 -11 -49 -56 -11 -49 -56 -4 -5 -43 0 
4 6 44 0 
-64 -7 -45 -58 -7 -45 -58 -4 -6 -44 0 
-65 -7 -45 -58 -7 -45 -58 -4 -6 -44 0 
-66 -7 -45 -58 -7 -45 -58 -4 -6 -44 0 
-67 -7 -45 -58 -7 -45 -58 -4 -6 -44 0 
-68 -7 -45 -58 -7 -45 -58 -4 -6 -44 0 
-69 -8 -46 -59 -8 -46 -59 -4 -6 -44 0 
-70 -8 -46 -59 -8 -46 -59 -4 -6 -44 0 
-71 -9 -47 -60 -9 -47 -60 -4 -6 -44 0 
-72 -10 -48 -61 -10 -48 -61 -4 -6 -44 0 
-73 -11 -49 -62 -11 -49 -62 -4 -6 -44 0 
4 7 45 0 
-69 -8 -46 -64 -8 -46 -64 -4 -7 -45 0 
-70 -8 -46 -64 -8 -46 -64 -4 -7 -45 0 
-71 -9 -47 -65 -9 -47 -65 -4 -7 -45 0 
-72 -10 -48 -66 -10 -48 -66 -4 -7 -45 0 
-73 -11 -49 -67 -11 -49 -67 -4 -7 -45 0 
4 8 46 0 
4 9 47 0 
4 10 48 0 
4 11 49 0 
4 12 50 0 
5 6 51 0 
-64 -7 -52 -58 -7 -52 -58 -5 -6 -51 0 
-65 -7 -52 -58 -7 -52 -58 -5 -6 -51 0 
-66 -7 -52 -58 -7 -52 -58 -5 -6 -51 0 
-67 -7 -52 -58 -7 -52 -58 -5 -6 -51 0 
-68 -7 -52 -58 -7 -52 -58 -5 -6 -51 0 
-69 -8 -53 -59 -8 -53 -59 -5 -6 -51 0 
-70 -8 -53 -59 -8 -53 -59 -5 -6 -51 0 
-71 -9 -54 -60 -9 -54 -60 -5 -6 -51 0 
-72 -10 -55 -61 -10 -55 -61 -5 -6 -51 0 
-73 -11 -56 -62 -11 -56 -62 -5 -6 -51 0 
5 7 52 0 
-69 -8 -53 -64 -8 -53 -64 -5 -7 -52 0 
-70 -8 -53 -64 -8 -53 -64 -5 -7 -52 0 
-71 -9 -54 -65 -9 -54 -65 -5 -7 -52 0 
-72 -10 -55 -66 -10 -55 -66 -5 -7 -52 0 
-73 -11 -56 -67 -11 -56 -67 -5 -7 -52 0 
5 8 53 0 
5 9 54 0 
5 10 55 0 
5 11 56 0 
5 12 57 0 
6 7 58 0 
-69 -8 -59 -64 -8 -59 -64 -6 -7 -58 0 
-70 -8 -59 -64 -8 -59 -64 -6 -7 -58 0 
-71 -9 -60 -65 -9 -60 -65 -6 -7 -58 0 
-72 -10 -61 -66 -10 -61 -66 -6 -7 -58 0 
-73 -11 -62 -67 -11 -62 -67 -6 -7 -58 0 
6 8 59 0 
6 9 60 0 
6 10 61 0 
6 11 62 0 
6 12 63 0 
7 8 64 0 
7 9 65 0 
7 10 66 0 
7 11 67 0 
7 12 68 0 
8 9 69 0 
8 12 70 0 
9 10 71 0 
10 11 72 0 
11 12 73 0 
13 14 24 0 
-43 -15 -25 -34 -15 -25 -34 -13 -14 -24 0 
-44 -15 -25 -34 -15 -25 -34 -13 -14 -24 0 
-45 -15 -25 -34 -15 -25 -34 -13 -14 -24 0 
-46 -15 -25 -34 -15 -25 -34 -13 -14 -24 0 
-47 -15 -25 -34 -15 -25 -34 -13 -14 -24 0 
-48 -15 -25 -34 -15 -25 -34 -13 -14 -24 0 
-49 -15 -25 -34 -15 -25 -34 -13 -14 -24 0 
-50 -15 -25 -34 -15 -25 -34 -13 -14 -24 0 
-51 -16 -26 -35 -16 -26 -35 -13 -14 -24 0 
-52 -16 -26 -35 -16 -26 -35 -13 -14 -24 0 
-53 -16 -26 -35 -16 -26 -35 -13 -14 -24 0 
-54 -16 -26 -35 -16 -26 -35 -13 -14 -24 0 
-55 -16 -26 -35 -16 -26 -35 -13 -14 -24 0 
-56 -16 -26 -35 -16 -26 -35 -13 -14 -24 0 
-57 -16 -26 -35 -16 -26 -35 -13 -14 -24 0 
-58 -17 -27 -36 -17 -27 -36 -13 -14 -24 0 
-59 -17 -27 -36 -17 -27 -36 -13 -14 -24 0 
-60 -17 -27 -36 -17 -27 -36 -13 -14 -24 0 
-61 -17 -27 -36 -17 -27 -36 -13 -14 -24 0 
-62 -17 -27 -36 -17 -27 -36 -13 -14 -24 0 
-63 -17 -27 -36 -17 -27 -36 -13 -14 -24 0 
-64 -18 -28 -37 -18 -28 -37 -13 -14 -24 0 
-65 -18 -28 -37 -18 -28 -37 -13 -14 -24 0 
-66 -18 -28 -37 -18 -28 -37 -13 -14 -24 0 
-67 -18 -28 -37 -18 -28 -37 -13 -14 -24 0 
-68 -18 -28 -37 -18 -28 -37 -13 -14 -24 0 
-69 -19 -29 -38 -19 -29 -38 -13 -14 -24 0 
-70 -19 -29 -38 -19 -29 -38 -13 -14 -24 0 
-71 -20 -30 -39 -20 -30 -39 -13 -14 -24 0 
-72 -21 -31 -40 -21 -31 -40 -13 -14 -24 0 
-73 -22 -32 -41 -22 -32 -41 -13 -14 -24 0 
13 15 25 0 
-51 -16 -26 -43 -16 -26 -43 -13 -15 -25 0 
-52 -16 -26 -43 -16 -26 -43 -13 -15 -25 0 
-53 -16 -26 -43 -16 -26 -43 -13 -15 -25 0 
-54 -16 -26 -43 -16 -26 -43 -13 -15 -25 0 
-55 -16 -26 -43 -16 -26 -43 -13 -15 -25 0 
-56 -16 -26 -43 -16 -26 -43 -13 -15 -25 0 
-57 -16 -26 -43 -16 -26 -43 -13 -15 -25 0 
-58 -17 -27 -44 -17 -27 -44 -13 -15 -25 0 
-59 -17 -27 -44 -17 -27 -44 -13 -15 -25 0 
-60 -17 -27 -44 -17 -27 -44 -13 -15 -25 0 
-61 -17 -27 -44 -17 -27 -44 -13 -15 -25 0 
-62 -17 -27 -44 -17 -27 -44 -13 -15 -25 0 
-63 -17 -27 -44 -17 -27 -44 -13 -15 -25 0 
-64 -18 -28 -45 -18 -28 -45 -13 -15 -25 0 
-65 -18 -28 -45 -18 -28 -45 -13 -15 -25 0 
-66 -18 -28 -45 -18 -28 -45 -13 -15 -25 0 
-67 -18 -28 -45 -18 -28 -45 -13 -15 -25 0 
-68 -18 -28 -45 -18 -28 -45 -13 -15 -25 0 
-69 -19 -29 -46 -19 -29 -46 -13 -15 -25 0 
-70 -19 -29 -46 -19 -29 -46 -13 -15 -25 0 
-71 -20 -30 -47 -20 -30 -47 -13 -15 -25 0 
-72 -21 -31 -48 -21 -31 -48 -13 -15 -25 0 
-73 -22 -32 -49 -22 -32 -49 -13 -15 -25 0 
13 16 26 0 
-58 -17 -27 -51 -17 -27 -51 -13 -16 -26 0 
-59 -17 -27 -51 -17 -27 -51 -13 -16 -26 0 
-60 -17 -27 -51 -17 -27 -51 -13 -16 -26 0 
-61 -17 -27 -51 -17 -27 -51 -13 -16 -26 0 
-62 -17 -27 -51 -17 -27 -51 -13 -16 -26 0 
-63 -17 -27 -51 -17 -27 -51 -13 -16 -26 0 
-64 -18 -28 -52 -18 -28 -52 -13 -16 -26 0 
-65 -18 -28 -52 -18 -28 -52 -13 -16 -26 0 
-66 -18 -28 -52 -18 -28 -52 -13 -16 -26 0 
-67 -18 -28 -52 -18 -28 -52 -13 -16 -26 0 
-68 -18 -28 -52 -18 -28 -52 -13 -16 -26 0 
-69 -19 -29 -53 -19 -29 -53 -13 -16 -26 0 
-70 -19 -29 -53 -19 -29 -53 -13 -16 -26 0 
-71 -20 -30 -54 -20 -30 -54 -13 -16 -26 0 
-72 -21 -31 -55 -21 -31 -55 -13 -16 -26 0 
-73 -22 -32 -56 -22 -32 -56 -13 -16 -26 0 
13 17 27 0 
-64 -18 -28 -58 -18 -28 -58 -13 -17 -27 0 
-65 -18 -28 -58 -18 -28 -58 -13 -17 -27 0 
-66 -18 -28 -58 -18 -28 -58 -13 -17 -27 0 
-67 -18 -28 -58 -18 -28 -58 -13 -17 -27 0 
-68 -18 -28 -58 -18 -28 -58 -13 -17 -27 0 
-69 -19 -29 -59 -19 -29 -59 -13 -17 -27 0 
-70 -19 -29 -59 -19 -29 -59 -13 -17 -27 0 
-71 -20 -30 -60 -20 -30 -60 -13 -17 -27 0 
-72 -21 -31 -61 -21 -31 -61 -13 -17 -27 0 
-73 -22 -32 -62 -22 -32 -62 -13 -17 -27 0 
13 18 28 0 
-69 -19 -29 -64 -19 -29 -64 -13 -18 -28 0 
-70 -19 -29 -64 -19 -29 -64 -13 -18 -28 0 
-71 -20 -30 -65 -20 -30 -65 -13 -18 -28 0 
-72 -21 -31 -66 -21 -31 -66 -13 -18 -28 0 
-73 -22 -32 -67 -22 -32 -67 -13 -18 -28 0 
13 19 29 0 
13 20 30 0 
13 21 31 0 
13 22 32 0 
13 23 33 0 
14 15 34 0 
-51 -16 -35 -43 -16 -35 -43 -14 -15 -34 0 
-52 -16 -35 -43 -16 -35 -43 -14 -15 -34 0 
-53 -16 -35 -43 -16 -35 -43 -14 -15 -34 0 
-54 -16 -35 -43 -16 -35 -43 -14 -15 -34 0 
-55 -16 -35 -43 -16 -35 -43 -14 -15 -34 0 
-56 -16 -35 -43 -16 -35 -43 -14 -15 -34 0 
-57 -16 -35 -43 -16 -35 -43 -14 -15 -34 0 
-58 -17 -36 -44 -17 -36 -44 -14 -15 -34 0 
-59 -17 -36 -44 -17 -36 -44 -14 -15 -34 0 
-60 -17 -36 -44 -17 -36 -44 -14 -15 -34 0 
-61 -17 -36 -44 -17 -36 -44 -14 -15 -34 0 
-62 -17 -36 -44 -17 -36 -44 -14 -15 -34 0 
-63 -17 -36 -44 -17 -36 -44 -14 -15 -34 0 
-64 -18 -37 -45 -18 -37 -45 -14 -15 -34 0 
-65 -18 -37 -45 -18 -37 -45 -14 -15 -34 0 
-66 -18 -37 -45 -18 -37 -45 -14 -15 -34 0 
-67 -18 -37 -45 -18 -37 -45 -14 -15 -34 0 
-68 -18 -37 -45 -18 -37 -45 -14 -15 -34 0 
-69 -19 -38 -46 -19 -38 -46 -14 -15 -34 0 
-70 -19 -38 -46 -19 -38 -46 -14 -15 -34 0 
-71 -20 -39 -47 -20 -39 -47 -14 -15 -34 0 
-72 -21 -40 -48 -21 -40 -48 -14 -15 -34 0 
-73 -22 -41 -49 -22 -41 -49 -14 -15 -34 0 
14 16 35 0 
-58 -17 -36 -51 -17 -36 -51 -14 -16 -35 0 
-59 -17 -36 -51 -17 -36 -51 -14 -16 -35 0 
-60 -17 -36 -51 -17 -36 -51 -14 -16 -35 0 
-61 -17 -36 -51 -17 -36 -51 -14 -16 -35 0 
-62 -17 -36 -51 -17 -36 -51 -14 -16 -35 0 
-63 -17 -36 -51 -17 -36 -51 -14 -16 -35 0 
-64 -18 -37 -52 -18 -37 -52 -14 -16 -35 0 
-65 -18 -37 -52 -18 -37 -52 -14 -16 -35 0 
-66 -18 -37 -52 -18 -37 -52 -14 -16 -35 0 
-67 -18 -37 -52 -18 -37 -52 -14 -16 -35 0 
-68 -18 -37 -52 -18 -37 -52 -14 -16 -35 0 
-69 -19 -38 -53 -19 -38 -53 -14 -16 -35 0 
-70 -19 -38 -53 -19 -38 -53 -14 -16 -35 0 
-71 -20 -39 -54 -20 -39 -54 -14 -16 -35 0 
-72 -21 -40 -55 -21 -40 -55 -14 -16 -35 0 
-73 -22 -41 -56 -22 -41 -56 -14 -16 -35 0 
14 17 36 0 
-64 -18 -37 -58 -18 -37 -58 -14 -17 -36 0 
-65 -18 -37 -58 -18 -37 -58 -14 -17 -36 0 
-66 -18 -37 -58 -18 -37 -58 -14 -17 -36 0 
-67 -18 -37 -58 -18 -37 -58 -14 -17 -36 0 
-68 -18 -37 -58 -18 -37 -58 -14 -17 -36 0 
-69 -19 -38 -59 -19 -38 -59 -14 -17 -36 0 
-70 -19 -38 -59 -19 -38 -59 -14 -17 -36 0 
-71 -20 -39 -60 -20 -39 -60 -14 -17 -36 0 
-72 -21 -40 -61 -21 -40 -61 -14 -17 -36 0 
-73 -22 -41 -62 -22 -41 -62 -14 -17 -36 0 
14 18 37 0 
-69 -19 -38 -64 -19 -38 -64 -14 -18 -37 0 
-70 -19 -38 -64 -19 -38 -64 -14 -18 -37 0 
-71 -20 -39 -65 -20 -39 -65 -14 -18 -37 0 
-72 -21 -40 -66 -21 -40 -66 -14 -18 -37 0 
-73 -22 -41 -67 -22 -41 -67 -14 -18 -37 0 
14 19 38 0 
14 20 39 0 
14 21 40 0 
14 22 41 0 
14 23 42 0 
15 16 43 0 
-58 -17 -44 -51 -17 -44 -51 -15 -16 -43 0 
-59 -17 -44 -51 -17 -44 -51 -15 -16 -43 0 
-60 -17 -44 -51 -17 -44 -51 -15 -16 -43 0 
-61 -17 -44 -51 -17 -44 -51 -15 -16 -43 0 
-62 -17 -44 -51 -17 -44 -51 -15 -16 -43 0 
-63 -17 -44 -51 -17 -44 -51 -15 -16 -43 0 
-64 -18 -45 -52 -18 -45 -52 -15 -16 -43 0 
-65 -18 -45 -52 -18 -45 -52 -15 -16 -43 0 
-66 -18 -45 -52 -18 -45 -52 -15 -16 -43 0 
-67 -18 -45 -52 -18 -45 -52 -15 -16 -43 0 
-68 -18 -45 -52 -18 -45 -52 -15 -16 -43 0 
-69 -19 -46 -53 -19 -46 -53 -15 -16 -43 0 
-70 -19 -46 -53 -19 -46 -53 -15 -16 -43 0 
-71 -20 -47 -54 -20 -47 -54 -15 -16 -43 0 
-72 -21 -48 -55 -21 -48 -55 -15 -16 -43 0 
-73 -22 -49 -56 -22 -49 -56 -15 -16 -43 0 
15 17 44 0 
-64 -18 -45 -58 -18 -45 -58 -15 -17 -44 0 
-65 -18 -45 -58 -18 -45 -58 -15 -17 -44 0 
-66 -18 -45 -58 -18 -45 -58 -15 -17 -44 0 
-67 -18 -45 -58 -18 -45 -58 -15 -17 -44 0 
-68 -18 -45 -58 -18 -45 -58 -15 -17 -44 0 
-69 -19 -46 -59 -19 -46 -59 -15 -17 -44 0 
-70 -19 -46 -59 -19 -46 -59 -15 -17 -44 0 
-71 -20 -47 -60 -20 -47 -60 -15 -17 -44 0 
-72 -21 -48 -61 -21 -48 -61 -15 -17 -44 0 
-73 -22 -49 -62 -22 -49 -62 -15 -17 -44 0 
15 18 45 0 
-69 -19 -46 -64 -19 -46 -64 -15 -18 -45 0 
-70 -19 -46 -64 -19 -46 -64 -15 -18 -45 0 
-71 -20 -47 -65 -20 -47 -65 -15 -18 -45 0 
-72 -21 -48 -66 -21 -48 -66 -15 -18 -45 0 
-73 -22 -49 -67 -22 -49 -67 -15 -18 -45 0 
15 19 46 0 
15 20 47 0 
15 21 48 0 
15 22 49 0 
15 23 50 0 
16 17 51 0 
-64 -18 -52 -58 -18 -52 -58 -16 -17 -51 0 
-65 -18 -52 -58 -18 -52 -58 -16 -17 -51 0 
-66 -18 -52 -58 -18 -52 -58 -16 -17 -51 0 
-67 -18 -52 -58 -18 -52 -58 -16 -17 -51 0 
-68 -18 -52 -58 -18 -52 -58 -16 -17 -51 0 
-69 -19 -53 -59 -19 -53 -59 -16 -17 -51 0 
-70 -19 -53 -59 -19 -53 -59 -16 -17 -51 0 
-71 -20 -54 -60 -20 -54 -60 -16 -17 -51 0 
-72 -21 -55 -61 -21 -55 -61 -16 -17 -51 0 
-73 -22 -56 -62 -22 -56 -62 -16 -17 -51 0 
16 18 52 0 
-69 -19 -53 -64 -19 -53 -64 -16 -18 -52 0 
-70 -19 -53 -64 -19 -53 -64 -16 -18 -52 0 
-71 -20 -54 -65 -20 -54 -65 -16 -18 -52 0 
-72 -21 -55 -66 -21 -55 -66 -16 -18 -52 0 
-73 -22 -56 -67 -22 -56 -67 -16 -18 -52 0 
16 19 53 0 
16 20 54 0 
16 21 55 0 
16 22 56 0 
16 23 57 0 
17 18 58 0 
-69 -19 -59 -64 -19 -59 -64 -17 -18 -58 0 
-70 -19 -59 -64 -19 -59 -64 -17 -18 -58 0 
-71 -20 -60 -65 -20 -60 -65 -17 -18 -58 0 
-72 -21 -61 -66 -21 -61 -66 -17 -18 -58 0 
-73 -22 -62 -67 -22 -62 -67 -17 -18 -58 0 
17 19 59 0 
17 20 60 0 
17 21 61 0 
17 22 62 0 
17 23 63 0 
18 19 64 0 
18 20 65 0 
18 21 66 0 
18 22 67 0 
18 23 68 0 
19 20 69 0 
19 23 70 0 
20 21 71 0 
21 22 72 0 
22 23 73 0 
24 25 34 0 
-51 -26 -35 -43 -26 -35 -43 -24 -25 -34 0 
-52 -26 -35 -43 -26 -35 -43 -24 -25 -34 0 
-53 -26 -35 -43 -26 -35 -43 -24 -25 -34 0 
-54 -26 -35 -43 -26 -35 -43 -24 -25 -34 0 
-55 -26 -35 -43 -26 -35 -43 -24 -25 -34 0 
-56 -26 -35 -43 -26 -35 -43 -24 -25 -34 0 
-57 -26 -35 -43 -26 -35 -43 -24 -25 -34 0 
-58 -27 -36 -44 -27 -36 -44 -24 -25 -34 0 
-59 -27 -36 -44 -27 -36 -44 -24 -25 -34 0 
-60 -27 -36 -44 -27 -36 -44 -24 -25 -34 0 
-61 -27 -36 -44 -27 -36 -44 -24 -25 -34 0 
-62 -27 -36 -44 -27 -36 -44 -24 -25 -34 0 
-63 -27 -36 -44 -27 -36 -44 -24 -25 -34 0 
-64 -28 -37 -45 -28 -37 -45 -24 -25 -34 0 
-65 -28 -37 -45 -28 -37 -45 -24 -25 -34 0 
-66 -28 -37 -45 -28 -37 -45 -24 -25 -34 0 
-67 -28 -37 -45 -28 -37 -45 -24 -25 -34 0 
-68 -28 -37 -45 -28 -37 -45 -24 -25 -34 0 
-69 -29 -38 -46 -29 -38 -46 -24 -25 -34 0 
-70 -29 -38 -46 -29 -38 -46 -24 -25 -34 0 
-71 -30 -39 -47 -30 -39 -47 -24 -25 -34 0 
-72 -31 -40 -48 -31 -40 -48 -24 -25 -34 0 
-73 -32 -41 -49 -32 -41 -49 -24 -25 -34 0 
24 26 35 0 
-58 -27 -36 -51 -27 -36 -51 -24 -26 -35 0 
-59 -27 -36 -51 -27 -36 -51 -24 -26 -35 0 
-60 -27 -36 -51 -27 -36 -51 -24 -26 -35 0 
-61 -27 -36 -51 -27 -36 -51 -24 -26 -35 0 
-62 -27 -36 -51 -27 -36 -51 -24 -26 -35 0 
-63 -27 -36 -51 -27 -36 -51 -24 -26 -35 0 
-64 -28 -37 -52 -28 -37 -52 -24 -26 -35 0 
-65 -28 -37 -52 -28 -37 -52 -24 -26 -35 0 
-66 -28 -37 -52 -28 -37 -52 -24 -26 -35 0 
-67 -28 -37 -52 -28 -37 -52 -24 -26 -35 0 
-68 -28 -37 -52 -28 -37 -52 -24 -26 -35 0 
-69 -29 -38 -53 -29 -38 -53 -24 -26 -35 0 
-70 -29 -38 -53 -29 -38 -53 -24 -26 -35 0 
-71 -30 -39 -54 -30 -39 -54 -24 -26 -35 0 
-72 -31 -40 -55 -31 -40 -55 -24 -26 -35 0 
-73 -32 -41 -56 -32 -41 -56 -24 -26 -35 0 
24 27 36 0 
-64 -28 -37 -58 -28 -37 -58 -24 -27 -36 0 
-65 -28 -37 -58 -28 -37 -58 -24 -27 -36 0 
-66 -28 -37 -58 -28 -37 -58 -24 -27 -36 0 
-67 -28 -37 -58 -28 -37 -58 -24 -27 -36 0 
-68 -28 -37 -58 -28 -37 -58 -24 -27 -36 0 
-69 -29 -38 -59 -29 -38 -59 -24 -27 -36 0 
-70 -29 -38 -59 -29 -38 -59 -24 -27 -36 0 
-71 -30 -39 -60 -30 -39 -60 -24 -27 -36 0 
-72 -31 -40 -61 -31 -40 -61 -24 -27 -36 0 
-73 -32 -41 -62 -32 -41 -62 -24 -27 -36 0 
24 28 37 0 
-69 -29 -38 -64 -29 -38 -64 -24 -28 -37 0 
-70 -29 -38 -64 -29 -38 -64 -24 -28 -37 0 
-71 -30 -39 -65 -30 -39 -65 -24 -28 -37 0 
-72 -31 -40 -66 -31 -40 -66 -24 -28 -37 0 
-73 -32 -41 -67 -32 -41 -67 -24 -28 -37 0 
24 29 38 0 
24 30 39 0 
24 31 40 0 
24 32 41 0 
24 33 42 0 
25 26 43 0 
-58 -27 -44 -51 -27 -44 -51 -25 -26 -43 0 
-59 -27 -44 -51 -27 -44 -51 -25 -26 -43 0 
-60 -27 -44 -51 -27 -44 -51 -25 -26 -43 0 
-61 -27 -44 -51 -27 -44 -51 -25 -26 -43 0 
-62 -27 -44 -51 -27 -44 -51 -25 -26 -43 0 
-63 -27 -44 -51 -27 -44 -51 -25 -26 -43 0 
-64 -28 -45 -52 -28 -45 -52 -25 -26 -43 0 
-65 -28 -45 -52 -28 -45 -52 -25 -26 -43 0 
-66 -28 -45 -52 -28 -45 -52 -25 -26 -43 0 
-67 -28 -45 -52 -28 -45 -52 -25 -26 -43 0 
-68 -28 -45 -52 -28 -45 -52 -25 -26 -43 0 
-69 -29 -46 -53 -29 -46 -53 -25 -26 -43 0 
-70 -29 -46 -53 -29 -46 -53 -25 -26 -43 0 
-71 -30 -47 -54 -30 -47 -54 -25 -26 -43 0 
-72 -31 -48 -55 -31 -48 -55 -25 -26 -43 0 
-73 -32 -49 -56 -32 -49 -56 -25 -26 -43 0 
25 27 44 0 
-64 -28 -45 -58 -28 -45 -58 -25 -27 -44 0 
-65 -28 -45 -58 -28 -45 -58 -25 -27 -44 0 
-66 -28 -45 -58 -28 -45 -58 -25 -27 -44 0 
-67 -28 -45 -58 -28 -45 -58 -25 -27 -44 0 
-68 -28 -45 -58 -28 -45 -58 -25 -27 -44 0 
-69 -29 -46 -59 -29 -46 -59 -25 -27 -44 0 
-70 -29 -46 -59 -29 -46 -59 -25 -27 -44 0 
-71 -30 -47 -60 -30 -47 -60 -25 -27 -44 0 
-72 -31 -48 -61 -31 -48 -61 -25 -27 -44 0 
-73 -32 -49 -62 -32 -49 -62 -25 -27 -44 0 
25 28 45 0 
-69 -29 -46 -64 -29 -46 -64 -25 -28 -45 0 
-70 -29 -46 -64 -29 -46 -64 -25 -28 -45 0 
-71 -30 -47 -65 -30 -47 -65 -25 -28 -45 0 
-72 -31 -48 -66 -31 -48 -66 -25 -28 -45 0 
-73 -32 -49 -67 -32 -49 -67 -25 -28 -45 0 
25 29 46 0 
25 30 47 0 
25 31 48 0 
25 32 49 0 
25 33 50 0 
26 27 51 0 
-64 -28 -52 -58 -28 -52 -58 -26 -27 -51 0 
-65 -28 -52 -58 -28 -52 -58 -26 -27 -51 0 
-66 -28 -52 -58 -28 -52 -58 -26 -27 -51 0 
-67 -28 -52 -58 -28 -52 -58 -26 -27 -51 0 
-68 -28 -52 -58 -28 -52 -58 -26 -27 -51 0 
-69 -29 -53 -59 -29 -53 -59 -26 -27 -51 0 
-70 -29 -53 -59 -29 -53 -59 -26 -27 -51 0 
-71 -30 -54 -60 -30 -54 -60 -26 -27 -51 0 
-72 -31 -55 -61 -31 -55 -61 -26 -27 -51 0 
-73 -32 -56 -62 -32 -56 -62 -26 -27 -51 0 
26 28 52 0 
-69 -29 -53 -64 -29 -53 -64 -26 -28 -52 0 
-70 -29 -53 -64 -29 -53 -64 -26 -28 -52 0 
-71 -30 -54 -65 -30 -54 -65 -26 -28 -52 0 
-72 -31 -55 -66 -31 -55 -66 -26 -28 -52 0 
-73 -32 -56 -67 -32 -56 -67 -26 -28 -52 0 
26 29 53 0 
26 30 54 0 
26 31 55 0 
26 32 56 0 
26 33 57 0 
27 28 58 0 
-69 -29 -59 -64 -29 -59 -64 -27 -28 -58 0 
-70 -29 -59 -64 -29 -59 -64 -27 -28 -58 0 
-71 -30 -60 -65 -30 -60 -65 -27 -28 -58 0 
-72 -31 -61 -66 -31 -61 -66 -27 -28 -58 0 
-73 -32 -62 -67 -32 -62 -67 -27 -28 -58 0 
27 29 59 0 
27 30 60 0 
27 31 61 0 
27 32 62 0 
27 33 63 0 
28 29 64 0 
28 30 65 0 
28 31 66 0 
28 32 67 0 
28 33 68 0 
29 30 69 0 
29 33 70 0 
30 31 71 0 
31 32 72 0 
32 33 73 0 
34 35 43 0 
-58 -36 -44 -51 -36 -44 -51 -34 -35 -43 0 
-59 -36 -44 -51 -36 -44 -51 -34 -35 -43 0 
-60 -36 -44 -51 -36 -44 -51 -34 -35 -43 0 
-61 -36 -44 -51 -36 -44 -51 -34 -35 -43 0 
-62 -36 -44 -51 -36 -44 -51 -34 -35 -43 0 
-63 -36 -44 -51 -36 -44 -51 -34 -35 -43 0 
-64 -37 -45 -52 -37 -45 -52 -34 -35 -43 0 
-65 -37 -45 -52 -37 -45 -52 -34 -35 -43 0 
-66 -37 -45 -52 -37 -45 -52 -34 -35 -43 0 
-67 -37 -45 -52 -37 -45 -52 -34 -35 -43 0 
-68 -37 -45 -52 -37 -45 -52 -34 -35 -43 0 
-69 -38 -46 -53 -38 -46 -53 -34 -35 -43 0 
-70 -38 -46 -53 -38 -46 -53 -34 -35 -43 0 
-71 -39 -47 -54 -39 -47 -54 -34 -35 -43 0 
-72 -40 -48 -55 -40 -48 -55 -34 -35 -43 0 
-73 -41 -49 -56 -41 -49 -56 -34 -35 -43 0 
34 36 44 0 
-64 -37 -45 -58 -37 -45 -58 -34 -36 -44 0 
-65 -37 -45 -58 -37 -45 -58 -34 -36 -44 0 
-66 -37 -45 -58 -37 -45 -58 -34 -36 -44 0 
-67 -37 -45 -58 -37 -45 -58 -34 -36 -44 0 
-68 -37 -45 -58 -37 -45 -58 -34 -36 -44 0 
-69 -38 -46 -59 -38 -46 -59 -34 -36 -44 0 
-70 -38 -46 -59 -38 -46 -59 -34 -36 -44 0 
-71 -39 -47 -60 -39 -47 -60 -34 -36 -44 0 
-72 -40 -48 -61 -40 -48 -61 -34 -36 -44 0 
-73 -41 -49 -62 -41 -49 -62 -34 -36 -44 0 
34 37 45 0 
-69 -38 -46 -64 -38 -46 -64 -34 -37 -45 0 
-70 -38 -46 -64 -38 -46 -64 -34 -37 -45 0 
-71 -39 -47 -65 -39 -47 -65 -34 -37 -45 0 
-72 -40 -48 -66 -40 -48 -66 -34 -37 -45 0 
-73 -41 -49 -67 -41 -49 -67 -34 -37 -45 0 
34 38 46 0 
34 39 47 0 
34 40 48 0 
34 41 49 0 
34 42 50 0 
35 36 51 0 
-64 -37 -52 -58 -37 -52 -58 -35 -36 -51 0 
-65 -37 -52 -58 -37 -52 -58 -35 -36 -51 0 
-66 -37 -52 -58 -37 -52 -58 -35 -36 -51 0 
-67 -37 -52 -58 -37 -52 -58 -35 -36 -51 0 
-68 -37 -52 -58 -37 -52 -58 -35 -36 -51 0 
-69 -38 -53 -59 -38 -53 -59 -35 -36 -51 0 
-70 -38 -53 -59 -38 -53 -59 -35 -36 -51 0 
-71 -39 -54 -60 -39 -54 -60 -35 -36 -51 0 
-72 -40 -55 -61 -40 -55 -61 -35 -36 -51 0 
-73 -41 -56 -62 -41 -56 -62 -35 -36 -51 0 
35 37 52 0 
-69 -38 -53 -64 -38 -53 -64 -35 -37 -52 0 
-70 -38 -53 -64 -38 -53 -64 -35 -37 -52 0 
-71 -39 -54 -65 -39 -54 -65 -35 -37 -52 0 
-72 -40 -55 -66 -40 -55 -66 -35 -37 -52 0 
-73 -41 -56 -67 -41 -56 -67 -35 -37 -52 0 
35 38 53 0 
35 39 54 0 
35 40 55 0 
35 41 56 0 
35 42 57 0 
36 37 58 0 
-69 -38 -59 -64 -38 -59 -64 -36 -37 -58 0 
-70 -38 -59 -64 -38 -59 -64 -36 -37 -58 0 
-71 -39 -60 -65 -39 -60 -65 -36 -37 -58 0 
-72 -40 -61 -66 -40 -61 -66 -36 -37 -58 0 
-73 -41 -62 -67 -41 -62 -67 -36 -37 -58 0 
36 38 59 0 
36 39 60 0 
36 40 61 0 
36 41 62 0 
36 42 63 0 
37 38 64 0 
37 39 65 0 
37 40 66 0 
37 41 67 0 
37 42 68 0 
38 39 69 0 
38 42 70 0 
39 40 71 0 
40 41 72 0 
41 42 73 0 
43 44 51 0 
-64 -45 -52 -58 -45 -52 -58 -43 -44 -51 0 
-65 -45 -52 -58 -45 -52 -58 -43 -44 -51 0 
-66 -45 -52 -58 -45 -52 -58 -43 -44 -51 0 
-67 -45 -52 -58 -45 -52 -58 -43 -44 -51 0 
-68 -45 -52 -58 -45 -52 -58 -43 -44 -51 0 
-69 -46 -53 -59 -46 -53 -59 -43 -44 -51 0 
-70 -46 -53 -59 -46 -53 -59 -43 -44 -51 0 
-71 -47 -54 -60 -47 -54 -60 -43 -44 -51 0 
-72 -48 -55 -61 -48 -55 -61 -43 -44 -51 0 
-73 -49 -56 -62 -49 -56 -62 -43 -44 -51 0 
43 45 52 0 
-69 -46 -53 -64 -46 -53 -64 -43 -45 -52 0 
-70 -46 -53 -64 -46 -53 -64 -43 -45 -52 0 
-71 -47 -54 -65 -47 -54 -65 -43 -45 -52 0 
-72 -48 -55 -66 -48 -55 -66 -43 -45 -52 0 
-73 -49 -56 -67 -49 -56 -67 -43 -45 -52 0 
43 46 53 0 
43 47 54 0 
43 48 55 0 
43 49 56 0 
43 50 57 0 
44 45 58 0 
-69 -46 -59 -64 -46 -59 -64 -44 -45 -58 0 
-70 -46 -59 -64 -46 -59 -64 -44 -45 -58 0 
-71 -47 -60 -65 -47 -60 -65 -44 -45 -58 0 
-72 -48 -61 -66 -48 -61 -66 -44 -45 -58 0 
-73 -49 -62 -67 -49 -62 -67 -44 -45 -58 0 
44 46 59 0 
44 47 60 0 
44 48 61 0 
44 49 62 0 
44 50 63 0 
45 46 64 0 
45 47 65 0 
45 48 66 0 
45 49 67 0 
45 50 68 0 
46 47 69 0 
46 50 70 0 
47 48 71 0 
48 49 72 0 
49 50 73 0 
51 52 58 0 
-69 -53 -59 -64 -53 -59 -64 -51 -52 -58 0 
-70 -53 -59 -64 -53 -59 -64 -51 -52 -58 0 
-71 -54 -60 -65 -54 -60 -65 -51 -52 -58 0 
-72 -55 -61 -66 -55 -61 -66 -51 -52 -58 0 
-73 -56 -62 -67 -56 -62 -67 -51 -52 -58 0 
51 53 59 0 
51 54 60 0 
51 55 61 0 
51 56 62 0 
51 57 63 0 
52 53 64 0 
52 54 65 0 
52 55 66 0 
52 56 67 0 
52 57 68 0 
53 54 69 0 
53 57 70 0 
54 55 71 0 
55 56 72 0 
56 57 73 0 
58 59 64 0 
58 60 65 0 
58 61 66 0 
58 62 67 0 
58 63 68 0 
59 60 69 0 
59 63 70 0 
60 61 71 0 
61 62 72 0 
62 63 73 0 
64 65 69 0 
64 68 70 0 
65 66 71 0 
66 67 72 0 
67 68 73 0 
